presolving:
(round 1, fast)       0 del vars, 0 del conss, 0 add conss, 4536 chg bounds, 0 chg sides, 0 chg coeffs, 0 upgd conss, 0 impls, 0 clqs
   (0.0s) running MILP presolver
   (0.1s) MILP presolver found nothing
   (0.3s) probing: 51/252 (20.2%) - 0 fixings, 0 aggregations, 0 implications, 0 bound changes
   (0.3s) probing aborted: 50/50 successive totally useless probings
   (0.3s) symmetry computation started: requiring (bin +, int -, cont +), (fixed: bin -, int +, cont -)
   (0.3s) no symmetry present
presolving (2 rounds: 2 fast, 1 medium, 1 exhaustive):
 0 deleted vars, 0 deleted constraints, 0 added constraints, 4536 tightened bounds, 0 added holes, 0 changed sides, 0 changed coefficients
 0 implications, 0 cliques
presolved problem has 4788 variables (252 bin, 0 int, 0 impl, 4536 cont) and 720 constraints
    720 constraints of type <linear>
Presolving Time: 0.27

 time | node  | left  |LP iter|LP it/n|mem/heur|mdpt |vars |cons |rows |cuts |sepa|confs|strbr|  dualbound   | primalbound  |  gap   | compl. 
p 0.3s|     1 |     0 |    90 |     - |   locks|   0 |4788 | 720 | 720 |   0 |  0 |   0 |   0 | 0.000000e+00 | 3.848940e+05 |    Inf | unknown
i 0.3s|     1 |     0 |    90 |     - |  oneopt|   0 |4788 | 720 | 720 |   0 |  0 |   0 |   0 | 0.000000e+00 | 6.289610e+04 |    Inf | unknown
  0.3s|     1 |     0 |   229 |     - |    38M |   0 |4788 | 720 | 720 |   0 |  0 |   0 |   0 | 2.164880e+04 | 6.289610e+04 | 190.53%| unknown
r 0.3s|     1 |     0 |   229 |     - |simplero|   0 |4788 | 720 | 720 |   0 |  0 |   0 |   0 | 2.164880e+04 | 5.765024e+04 | 166.30%| unknown
  0.4s|     1 |     0 |   355 |     - |    40M |   0 |4788 | 720 | 758 |  38 |  1 |   0 |   0 | 3.091391e+04 | 5.765024e+04 |  86.49%| unknown
  0.4s|     1 |     0 |   355 |     - |    41M |   0 |4788 | 720 | 758 |  38 |  1 |   0 |   0 | 3.091391e+04 | 5.765024e+04 |  86.49%| unknown
  0.5s|     1 |     0 |   469 |     - |    41M |   0 |4788 | 720 | 794 |  74 |  2 |   0 |   0 | 3.548964e+04 | 5.765024e+04 |  62.44%| unknown
  0.6s|     1 |     0 |   523 |     - |    41M |   0 |4788 | 720 | 816 |  96 |  3 |   0 |   0 | 3.737727e+04 | 5.765024e+04 |  54.24%| unknown
  0.7s|     1 |     0 |   606 |     - |    42M |   0 |4788 | 720 | 834 | 114 |  4 |   0 |   0 | 3.998857e+04 | 5.765024e+04 |  44.17%| unknown
  1.0s|     1 |     0 |   746 |     - |    42M |   0 |4788 | 720 | 851 | 131 |  5 |   0 |   0 | 4.250166e+04 | 5.765024e+04 |  35.64%| unknown
  1.2s|     1 |     0 |   803 |     - |    43M |   0 |4788 | 720 | 860 | 140 |  6 |   0 |   0 | 4.430616e+04 | 5.765024e+04 |  30.12%| unknown
  1.4s|     1 |     0 |   878 |     - |    43M |   0 |4788 | 720 | 870 | 150 |  7 |   0 |   0 | 4.490467e+04 | 5.765024e+04 |  28.38%| unknown
  1.6s|     1 |     0 |  1057 |     - |    44M |   0 |4788 | 720 | 892 | 172 |  8 |   0 |   0 | 4.586548e+04 | 5.765024e+04 |  25.69%| unknown
  1.7s|     1 |     0 |  1210 |     - |    44M |   0 |4788 | 720 | 914 | 194 |  9 |   0 |   0 | 4.644474e+04 | 5.765024e+04 |  24.13%| unknown
  1.9s|     1 |     0 |  1302 |     - |    44M |   0 |4788 | 720 | 932 | 212 | 10 |   0 |   0 | 4.698169e+04 | 5.765024e+04 |  22.71%| unknown
 time | node  | left  |LP iter|LP it/n|mem/heur|mdpt |vars |cons |rows |cuts |sepa|confs|strbr|  dualbound   | primalbound  |  gap   | compl. 
  2.0s|     1 |     0 |  1411 |     - |    45M |   0 |4788 | 720 | 938 | 218 | 11 |   0 |   0 | 4.716681e+04 | 5.765024e+04 |  22.23%| unknown
  2.3s|     1 |     0 |  1553 |     - |    45M |   0 |4788 | 720 | 945 | 225 | 12 |   0 |   0 | 4.746253e+04 | 5.765024e+04 |  21.46%| unknown
  2.5s|     1 |     0 |  1755 |     - |    46M |   0 |4788 | 720 | 966 | 246 | 13 |   0 |   0 | 4.774819e+04 | 5.765024e+04 |  20.74%| unknown
  2.8s|     1 |     0 |  1960 |     - |    47M |   0 |4788 | 720 | 984 | 264 | 14 |   0 |   0 | 4.805531e+04 | 5.765024e+04 |  19.97%| unknown
  3.1s|     1 |     0 |  2206 |     - |    47M |   0 |4788 | 720 |1002 | 282 | 15 |   0 |   0 | 4.833448e+04 | 5.765024e+04 |  19.27%| unknown
  3.5s|     1 |     0 |  2374 |     - |    47M |   0 |4788 | 720 | 996 | 294 | 16 |   0 |   0 | 4.855901e+04 | 5.765024e+04 |  18.72%| unknown
  3.9s|     1 |     0 |  2720 |     - |    47M |   0 |4788 | 720 |1017 | 315 | 17 |   0 |   0 | 4.875508e+04 | 5.765024e+04 |  18.24%| unknown
  4.2s|     1 |     0 |  2951 |     - |    47M |   0 |4788 | 720 |1024 | 322 | 18 |   0 |   0 | 4.887248e+04 | 5.765024e+04 |  17.96%| unknown
  4.5s|     1 |     0 |  3153 |     - |    48M |   0 |4788 | 720 |1032 | 330 | 19 |   0 |   0 | 4.897543e+04 | 5.765024e+04 |  17.71%| unknown
  4.7s|     1 |     0 |  3338 |     - |    48M |   0 |4788 | 720 |1038 | 336 | 20 |   0 |   0 | 4.903539e+04 | 5.765024e+04 |  17.57%| unknown
  4.9s|     1 |     0 |  3641 |     - |    49M |   0 |4788 | 720 |1046 | 344 | 21 |   0 |   0 | 4.911887e+04 | 5.765024e+04 |  17.37%| unknown
  5.1s|     1 |     0 |  3912 |     - |    49M |   0 |4788 | 720 |1032 | 349 | 22 |   0 |   0 | 4.922168e+04 | 5.765024e+04 |  17.12%| unknown
  5.4s|     1 |     0 |  4375 |     - |    50M |   0 |4788 | 720 |1045 | 362 | 23 |   0 |   0 | 4.931619e+04 | 5.765024e+04 |  16.90%| unknown
  5.6s|     1 |     0 |  4653 |     - |    50M |   0 |4788 | 720 |1061 | 378 | 24 |   0 |   0 | 4.949911e+04 | 5.765024e+04 |  16.47%| unknown
  6.0s|     1 |     0 |  4902 |     - |    50M |   0 |4788 | 720 |1075 | 392 | 25 |   0 |   0 | 4.960738e+04 | 5.765024e+04 |  16.21%| unknown
 time | node  | left  |LP iter|LP it/n|mem/heur|mdpt |vars |cons |rows |cuts |sepa|confs|strbr|  dualbound   | primalbound  |  gap   | compl. 
  6.4s|     1 |     0 |  5212 |     - |    50M |   0 |4788 | 720 |1079 | 396 | 26 |   0 |   0 | 4.964567e+04 | 5.765024e+04 |  16.12%| unknown
  6.7s|     1 |     0 |  5433 |     - |    50M |   0 |4788 | 720 |1089 | 406 | 27 |   0 |   0 | 4.967805e+04 | 5.765024e+04 |  16.05%| unknown
  7.1s|     1 |     0 |  5803 |     - |    50M |   0 |4788 | 720 |1055 | 415 | 28 |   0 |   0 | 4.970830e+04 | 5.765024e+04 |  15.98%| unknown
  7.6s|     1 |     0 |  6046 |     - |    52M |   0 |4788 | 720 |1061 | 421 | 29 |   0 |   0 | 4.971604e+04 | 5.765024e+04 |  15.96%| unknown
  7.9s|     1 |     0 |  6283 |     - |    52M |   0 |4788 | 720 |1063 | 423 | 30 |   0 |   0 | 4.972861e+04 | 5.765024e+04 |  15.93%| unknown
  8.0s|     1 |     0 |  6311 |     - |    52M |   0 |4788 | 720 |1072 | 432 | 31 |   0 |   0 | 4.975017e+04 | 5.765024e+04 |  15.88%| unknown
  8.1s|     1 |     0 |  6457 |     - |    52M |   0 |4788 | 720 |1074 | 434 | 32 |   0 |   0 | 4.975317e+04 | 5.765024e+04 |  15.87%| unknown
  8.4s|     1 |     0 |  6619 |     - |    52M |   0 |4788 | 720 |1080 | 440 | 33 |   0 |   0 | 4.976833e+04 | 5.765024e+04 |  15.84%| unknown
  8.8s|     1 |     0 |  6881 |     - |    52M |   0 |4788 | 720 |1042 | 449 | 34 |   0 |   0 | 4.978131e+04 | 5.765024e+04 |  15.81%| unknown
  9.1s|     1 |     0 |  7253 |     - |    52M |   0 |4788 | 720 |1051 | 458 | 35 |   0 |   0 | 4.979823e+04 | 5.765024e+04 |  15.77%| unknown
  9.4s|     1 |     0 |  7534 |     - |    52M |   0 |4788 | 720 |1062 | 469 | 36 |   0 |   0 | 4.980611e+04 | 5.765024e+04 |  15.75%| unknown
  9.7s|     1 |     0 |  7566 |     - |    52M |   0 |4788 | 720 |1067 | 474 | 37 |   0 |   0 | 4.980972e+04 | 5.765024e+04 |  15.74%| unknown
  9.8s|     1 |     0 |  7757 |     - |    52M |   0 |4788 | 720 |1069 | 476 | 38 |   0 |   0 | 4.981360e+04 | 5.765024e+04 |  15.73%| unknown
 10.0s|     1 |     0 |  7956 |     - |    52M |   0 |4788 | 720 |1074 | 481 | 39 |   0 |   0 | 4.981993e+04 | 5.765024e+04 |  15.72%| unknown
 10.3s|     1 |     0 |  8300 |     - |    52M |   0 |4788 | 720 |1044 | 490 | 40 |   0 |   0 | 4.982732e+04 | 5.765024e+04 |  15.70%| unknown
 time | node  | left  |LP iter|LP it/n|mem/heur|mdpt |vars |cons |rows |cuts |sepa|confs|strbr|  dualbound   | primalbound  |  gap   | compl. 
 10.5s|     1 |     0 |  8492 |     - |    52M |   0 |4788 | 720 |1049 | 495 | 41 |   0 |   0 | 4.982839e+04 | 5.765024e+04 |  15.70%| unknown
 10.6s|     1 |     0 |  8681 |     - |    52M |   0 |4788 | 720 |1053 | 499 | 42 |   0 |   0 | 4.982973e+04 | 5.765024e+04 |  15.69%| unknown
 10.8s|     1 |     0 |  9152 |     - |    52M |   0 |4788 | 720 |1063 | 509 | 43 |   0 |   0 | 4.983584e+04 | 5.765024e+04 |  15.68%| unknown
 11.0s|     1 |     0 |  9374 |     - |    52M |   0 |4788 | 720 |1065 | 511 | 44 |   0 |   0 | 4.983842e+04 | 5.765024e+04 |  15.67%| unknown
 11.4s|     1 |     0 |  9629 |     - |    53M |   0 |4788 | 720 |1072 | 518 | 45 |   0 |   0 | 4.984543e+04 | 5.765024e+04 |  15.66%| unknown
 12.0s|     1 |     0 |  9953 |     - |    53M |   0 |4788 | 720 |1043 | 525 | 46 |   0 |   0 | 4.985224e+04 | 5.765024e+04 |  15.64%| unknown
 12.4s|     1 |     0 | 10135 |     - |    53M |   0 |4788 | 720 |1048 | 530 | 47 |   0 |   0 | 4.985747e+04 | 5.765024e+04 |  15.63%| unknown
 12.7s|     1 |     0 | 10329 |     - |    53M |   0 |4788 | 720 |1059 | 541 | 48 |   0 |   0 | 4.986130e+04 | 5.765024e+04 |  15.62%| unknown
 13.2s|     1 |     0 | 10819 |     - |    53M |   0 |4788 | 720 |1069 | 551 | 49 |   0 |   0 | 4.986443e+04 | 5.765024e+04 |  15.61%| unknown
 13.6s|     1 |     0 | 11085 |     - |    53M |   0 |4788 | 720 |1073 | 555 | 50 |   0 |   0 | 4.986712e+04 | 5.765024e+04 |  15.61%| unknown
 14.1s|     1 |     0 | 11550 |     - |    53M |   0 |4788 | 720 |1080 | 562 | 51 |   0 |   0 | 4.986960e+04 | 5.765024e+04 |  15.60%| unknown
 14.5s|     1 |     0 | 11752 |     - |    53M |   0 |4788 | 720 |1066 | 566 | 52 |   0 |   0 | 4.987157e+04 | 5.765024e+04 |  15.60%| unknown
 14.7s|     1 |     0 | 12137 |     - |    53M |   0 |4788 | 720 |1078 | 578 | 53 |   0 |   0 | 4.987719e+04 | 5.765024e+04 |  15.58%| unknown
 15.0s|     1 |     0 | 12643 |     - |    54M |   0 |4788 | 720 |1089 | 589 | 54 |   0 |   0 | 4.987827e+04 | 5.765024e+04 |  15.58%| unknown
 15.1s|     1 |     0 | 12973 |     - |    54M |   0 |4788 | 720 |1091 | 591 | 55 |   0 |   0 | 4.988170e+04 | 5.765024e+04 |  15.57%| unknown
 time | node  | left  |LP iter|LP it/n|mem/heur|mdpt |vars |cons |rows |cuts |sepa|confs|strbr|  dualbound   | primalbound  |  gap   | compl. 
 15.6s|     1 |     0 | 13277 |     - |    54M |   0 |4788 | 720 |1096 | 596 | 56 |   0 |   0 | 4.988394e+04 | 5.765024e+04 |  15.57%| unknown
 16.1s|     1 |     0 | 13604 |     - |    54M |   0 |4788 | 720 |1102 | 602 | 57 |   0 |   0 | 4.988629e+04 | 5.765024e+04 |  15.56%| unknown
 16.4s|     1 |     0 | 13926 |     - |    54M |   0 |4788 | 720 |1075 | 608 | 58 |   0 |   0 | 4.989020e+04 | 5.765024e+04 |  15.55%| unknown
 16.5s|     1 |     0 | 14125 |     - |    54M |   0 |4788 | 720 |1078 | 611 | 59 |   0 |   0 | 4.989209e+04 | 5.765024e+04 |  15.55%| unknown
 16.7s|     1 |     0 | 14520 |     - |    54M |   0 |4788 | 720 |1083 | 616 | 60 |   0 |   0 | 4.989479e+04 | 5.765024e+04 |  15.54%| unknown
 17.2s|     1 |     0 | 15008 |     - |    55M |   0 |4788 | 720 |1097 | 630 | 61 |   0 |   0 | 4.989990e+04 | 5.765024e+04 |  15.53%| unknown
 17.8s|     1 |     0 | 15202 |     - |    55M |   0 |4788 | 720 |1101 | 634 | 62 |   0 |   0 | 4.990141e+04 | 5.765024e+04 |  15.53%| unknown
 18.1s|     1 |     0 | 15742 |     - |    55M |   0 |4788 | 720 |1107 | 640 | 63 |   0 |   0 | 4.990590e+04 | 5.765024e+04 |  15.52%| unknown
 18.5s|     1 |     0 | 16184 |     - |    56M |   0 |4788 | 720 |1080 | 647 | 64 |   0 |   0 | 4.990781e+04 | 5.765024e+04 |  15.51%| unknown
 18.6s|     1 |     0 | 16274 |     - |    56M |   0 |4788 | 720 |1083 | 650 | 65 |   0 |   0 | 4.990845e+04 | 5.765024e+04 |  15.51%| unknown
 18.9s|     1 |     0 | 16596 |     - |    56M |   0 |4788 | 720 |1092 | 659 | 66 |   0 |   0 | 4.991010e+04 | 5.765024e+04 |  15.51%| unknown
 19.1s|     1 |     0 | 16710 |     - |    56M |   0 |4788 | 720 |1096 | 663 | 67 |   0 |   0 | 4.991051e+04 | 5.765024e+04 |  15.51%| unknown
 19.5s|     1 |     0 | 17200 |     - |    56M |   0 |4788 | 720 |1101 | 668 | 68 |   0 |   0 | 4.991185e+04 | 5.765024e+04 |  15.50%| unknown
 19.8s|     1 |     0 | 17577 |     - |    56M |   0 |4788 | 720 |1104 | 671 | 69 |   0 |   0 | 4.991213e+04 | 5.765024e+04 |  15.50%| unknown
 19.9s|     1 |     0 | 17608 |     - |    56M |   0 |4788 | 720 |1073 | 673 | 70 |   0 |   0 | 4.991213e+04 | 5.765024e+04 |  15.50%| unknown
 time | node  | left  |LP iter|LP it/n|mem/heur|mdpt |vars |cons |rows |cuts |sepa|confs|strbr|  dualbound   | primalbound  |  gap   | compl. 
 20.2s|     1 |     0 | 17758 |     - |    56M |   0 |4788 | 720 |1077 | 677 | 71 |   0 |   0 | 4.991223e+04 | 5.765024e+04 |  15.50%| unknown
 20.4s|     1 |     0 | 18024 |     - |    56M |   0 |4788 | 720 |1079 | 679 | 72 |   0 |   0 | 4.991236e+04 | 5.765024e+04 |  15.50%| unknown
r21.8s|     1 |     0 | 21383 |     - |intshift|   0 |4788 | 720 |1079 | 679 | 72 |   0 |   0 | 4.991236e+04 | 5.693300e+04 |  14.07%| unknown
L28.4s|     1 |     0 | 31893 |     - |    rens|   0 |4788 | 720 |1079 | 679 | 72 |   0 |   0 | 4.991236e+04 | 5.007473e+04 |   0.33%| unknown
 28.6s|     1 |     0 | 31893 |     - |    58M |   0 |4788 | 720 |1079 | 679 | 72 |   0 |   0 | 4.991236e+04 | 5.007473e+04 |   0.33%| unknown
 29.1s|     1 |     0 | 32777 |     - |    58M |   0 |4788 | 720 |1079 | 679 | 72 |   0 |   0 | 4.992588e+04 | 5.007473e+04 |   0.30%| unknown
 29.1s|     1 |     0 | 32777 |     - |    58M |   0 |4788 | 720 |1079 | 679 | 72 |   0 |   0 | 4.992588e+04 | 5.007473e+04 |   0.30%| unknown
 29.5s|     1 |     0 | 33278 |     - |    58M |   0 |4788 | 720 |1103 | 703 | 73 |   0 |   0 | 4.993818e+04 | 5.007473e+04 |   0.27%| unknown
 29.8s|     1 |     0 | 33721 |     - |    58M |   0 |4788 | 720 |1139 | 739 | 74 |   0 |   0 | 4.994007e+04 | 5.007473e+04 |   0.27%| unknown
 29.8s|     1 |     0 | 33721 |     - |    58M |   0 |4788 | 608 |1139 | 739 | 74 |   0 |   0 | 4.994007e+04 | 5.007473e+04 |   0.27%| unknown
 30.3s|     1 |     0 | 34326 |     - |    58M |   0 |4788 | 608 |1163 | 763 | 75 |   0 |   0 | 4.995163e+04 | 5.007473e+04 |   0.25%| unknown
 30.3s|     1 |     0 | 34326 |     - |    58M |   0 |4788 | 608 |1094 | 763 | 75 |   0 |   0 | 4.995163e+04 | 5.007473e+04 |   0.25%| unknown
 30.6s|     1 |     0 | 34612 |     - |    58M |   0 |4788 | 608 |1075 | 774 | 76 |   0 |   0 | 4.995572e+04 | 5.007473e+04 |   0.24%| unknown
 30.6s|     1 |     0 | 34612 |     - |    58M |   0 |4788 | 608 |1073 | 774 | 76 |   0 |   0 | 4.995572e+04 | 5.007473e+04 |   0.24%| unknown
 30.6s|     1 |     0 | 34612 |     - |    58M |   0 |4788 | 601 |1073 | 774 | 76 |   0 |   0 | 4.995572e+04 | 5.007473e+04 |   0.24%| unknown
 time | node  | left  |LP iter|LP it/n|mem/heur|mdpt |vars |cons |rows |cuts |sepa|confs|strbr|  dualbound   | primalbound  |  gap   | compl. 
 30.7s|     1 |     0 | 34632 |     - |    58M |   0 |4788 | 601 |1091 | 792 | 77 |   0 |   0 | 4.995672e+04 | 5.007473e+04 |   0.24%| unknown
(run 1, node 1) restarting after 119 global fixings of integer variables

(restart) converted 439 cuts from the global cut pool into linear constraints

presolving:
(round 1, fast)       2261 del vars, 1 del conss, 0 add conss, 0 chg bounds, 0 chg sides, 0 chg coeffs, 0 upgd conss, 0 impls, 0 clqs
   (30.8s) running MILP presolver
   (30.8s) MILP presolver (2 rounds): 1 aggregations, 0 fixings, 17 bound changes
(round 2, medium)     2262 del vars, 1 del conss, 0 add conss, 17 chg bounds, 0 chg sides, 0 chg coeffs, 0 upgd conss, 0 impls, 0 clqs
(round 3, fast)       2262 del vars, 2 del conss, 0 add conss, 17 chg bounds, 0 chg sides, 0 chg coeffs, 0 upgd conss, 0 impls, 0 clqs
(round 4, exhaustive) 2263 del vars, 20 del conss, 0 add conss, 17 chg bounds, 0 chg sides, 0 chg coeffs, 0 upgd conss, 0 impls, 0 clqs
(round 5, exhaustive) 2263 del vars, 35 del conss, 0 add conss, 17 chg bounds, 15 chg sides, 0 chg coeffs, 0 upgd conss, 0 impls, 0 clqs
(round 6, exhaustive) 2263 del vars, 35 del conss, 0 add conss, 17 chg bounds, 15 chg sides, 0 chg coeffs, 12 upgd conss, 0 impls, 0 clqs
presolving (7 rounds: 7 fast, 5 medium, 4 exhaustive):
 2263 deleted vars, 35 deleted constraints, 0 added constraints, 17 tightened bounds, 0 added holes, 15 changed sides, 0 changed coefficients
 0 implications, 0 cliques
presolved problem has 2525 variables (133 bin, 0 int, 0 impl, 2392 cont) and 1005 constraints
    993 constraints of type <linear>
     12 constraints of type <logicor>
Presolving Time: 0.40
transformed 3/100 original solutions to the transformed problem space

 time | node  | left  |LP iter|LP it/n|mem/heur|mdpt |vars |cons |rows |cuts |sepa|confs|strbr|  dualbound   | primalbound  |  gap   | compl. 
 31.4s|     1 |     0 | 37210 |     - |    68M |   0 |2525 |1005 |1005 |   0 |  0 |   0 |   0 | 4.995672e+04 | 5.007473e+04 |   0.24%| unknown
 31.4s|     1 |     0 | 37210 |     - |    68M |   0 |2525 |1005 |1005 |   0 |  0 |   0 |   0 | 4.995672e+04 | 5.007473e+04 |   0.24%| unknown
 31.6s|     1 |     0 | 37447 |     - |    68M |   0 |2525 |1005 |1007 |   2 |  1 |   0 |   0 | 4.995786e+04 | 5.007473e+04 |   0.23%| unknown
 31.7s|     1 |     0 | 37447 |     - |    68M |   0 |2525 |1005 |1007 |   2 |  1 |   0 |   0 | 4.995786e+04 | 5.007473e+04 |   0.23%| unknown
 32.0s|     1 |     0 | 37790 |     - |    68M |   0 |2525 |1005 |1018 |  13 |  2 |   0 |   0 | 4.996218e+04 | 5.007473e+04 |   0.23%| unknown
 32.0s|     1 |     0 | 37790 |     - |    68M |   0 |2525 |1005 |1018 |  13 |  2 |   0 |   0 | 4.996218e+04 | 5.007473e+04 |   0.23%| unknown
 32.2s|     1 |     0 | 38115 |     - |    68M |   0 |2525 |1005 |1025 |  20 |  3 |   0 |   0 | 4.996411e+04 | 5.007473e+04 |   0.22%| unknown
 32.4s|     1 |     0 | 38601 |     - |    69M |   0 |2525 |1005 |1033 |  28 |  4 |   0 |   0 | 4.997176e+04 | 5.007473e+04 |   0.21%| unknown
 32.4s|     1 |     0 | 38601 |     - |    69M |   0 |2525 |1005 |1033 |  28 |  4 |   0 |   0 | 4.997176e+04 | 5.007473e+04 |   0.21%| unknown
 32.5s|     1 |     0 | 38800 |     - |    69M |   0 |2525 |1005 |1039 |  34 |  5 |   0 |   0 | 4.997492e+04 | 5.007473e+04 |   0.20%| unknown
 32.8s|     1 |     0 | 39134 |     - |    69M |   0 |2525 |1006 |1046 |  41 |  6 |   1 |   0 | 4.998760e+04 | 5.007473e+04 |   0.17%| unknown
 33.0s|     1 |     0 | 39417 |     - |    69M |   0 |2525 |1006 |1049 |  44 |  7 |   1 |   0 | 4.999233e+04 | 5.007473e+04 |   0.16%| unknown
 33.3s|     1 |     0 | 39745 |     - |    69M |   0 |2525 |1006 |1052 |  47 |  8 |   1 |   0 | 4.999490e+04 | 5.007473e+04 |   0.16%| unknown
 33.3s|     1 |     0 | 39745 |     - |    69M |   0 |2525 |1006 |1052 |  47 |  8 |   1 |   0 | 4.999490e+04 | 5.007473e+04 |   0.16%| unknown
 33.6s|     1 |     0 | 39895 |     - |    69M |   0 |2525 |1006 |1057 |  52 |  9 |   1 |   0 | 4.999655e+04 | 5.007473e+04 |   0.16%| unknown
 time | node  | left  |LP iter|LP it/n|mem/heur|mdpt |vars |cons |rows |cuts |sepa|confs|strbr|  dualbound   | primalbound  |  gap   | compl. 
 33.6s|     1 |     0 | 39895 |     - |    69M |   0 |2525 |1006 |1057 |  52 |  9 |   1 |   0 | 4.999655e+04 | 5.007473e+04 |   0.16%| unknown
 33.8s|     1 |     0 | 40081 |     - |    70M |   0 |2525 |1006 | 953 |  54 | 10 |   1 |   0 | 4.999753e+04 | 5.007473e+04 |   0.15%| unknown
 34.1s|     1 |     0 | 40132 |     - |    70M |   0 |2525 |1006 | 957 |  58 | 11 |   1 |   0 | 4.999771e+04 | 5.007473e+04 |   0.15%| unknown
 34.1s|     1 |     0 | 40132 |     - |    70M |   0 |2525 |1006 | 957 |  58 | 11 |   1 |   0 | 4.999771e+04 | 5.007473e+04 |   0.15%| unknown
 34.3s|     1 |     0 | 40323 |     - |    70M |   0 |2525 |1006 | 961 |  62 | 12 |   1 |   0 | 4.999969e+04 | 5.007473e+04 |   0.15%| unknown
 34.4s|     1 |     0 | 40353 |     - |    70M |   0 |2525 |1006 | 964 |  65 | 13 |   1 |   0 | 4.999980e+04 | 5.007473e+04 |   0.15%| unknown
 34.6s|     1 |     0 | 40449 |     - |    70M |   0 |2525 |1006 | 966 |  67 | 14 |   1 |   0 | 5.000015e+04 | 5.007473e+04 |   0.15%| unknown
 34.7s|     1 |     0 | 40589 |     - |    70M |   0 |2525 |1006 | 968 |  69 | 15 |   1 |   0 | 5.000035e+04 | 5.007473e+04 |   0.15%| unknown
 34.8s|     1 |     0 | 40727 |     - |    70M |   0 |2525 |1006 | 918 |  71 | 16 |   1 |   0 | 5.000057e+04 | 5.007473e+04 |   0.15%| unknown
 34.8s|     1 |     0 | 40727 |     - |    70M |   0 |2525 |1006 | 918 |  71 | 16 |   1 |   0 | 5.000057e+04 | 5.007473e+04 |   0.15%| unknown
 34.8s|     1 |     0 | 40727 |     - |    70M |   0 |2525 | 985 | 918 |  71 | 16 |   1 |   0 | 5.000057e+04 | 5.007473e+04 |   0.15%| unknown
 34.8s|     1 |     0 | 40813 |     - |    70M |   0 |2525 | 985 | 919 |  72 | 17 |   1 |   0 | 5.000063e+04 | 5.007473e+04 |   0.15%| unknown
 34.9s|     1 |     0 | 40813 |     - |    70M |   0 |2525 | 985 | 912 |  72 | 17 |   1 |   0 | 5.000063e+04 | 5.007473e+04 |   0.15%| unknown
 34.9s|     1 |     0 | 40895 |     - |    70M |   0 |2525 | 985 | 914 |  74 | 18 |   1 |   0 | 5.000072e+04 | 5.007473e+04 |   0.15%| unknown
 35.1s|     1 |     0 | 41116 |     - |    70M |   0 |2525 | 985 | 918 |  78 | 19 |   1 |   0 | 5.000197e+04 | 5.007473e+04 |   0.15%| unknown
 time | node  | left  |LP iter|LP it/n|mem/heur|mdpt |vars |cons |rows |cuts |sepa|confs|strbr|  dualbound   | primalbound  |  gap   | compl. 
 35.3s|     1 |     0 | 41202 |     - |    70M |   0 |2525 | 985 | 919 |  79 | 20 |   1 |   0 | 5.000218e+04 | 5.007473e+04 |   0.15%| unknown
 35.4s|     1 |     0 | 41273 |     - |    70M |   0 |2525 | 985 | 921 |  81 | 21 |   1 |   0 | 5.000222e+04 | 5.007473e+04 |   0.15%| unknown
 35.5s|     1 |     0 | 41530 |     - |    71M |   0 |2525 | 985 | 882 |  83 | 22 |   1 |   0 | 5.000372e+04 | 5.007473e+04 |   0.14%| unknown
 35.7s|     1 |     0 | 41656 |     - |    71M |   0 |2525 | 985 | 888 |  89 | 23 |   1 |   0 | 5.000432e+04 | 5.007473e+04 |   0.14%| unknown
 35.9s|     1 |     0 | 42062 |     - |    71M |   0 |2525 | 985 | 894 |  95 | 24 |   1 |   0 | 5.001165e+04 | 5.007473e+04 |   0.13%| unknown
 36.1s|     1 |     0 | 42359 |     - |    71M |   0 |2525 | 985 | 904 | 105 | 25 |   1 |   0 | 5.001442e+04 | 5.007473e+04 |   0.12%| unknown
 36.2s|     1 |     0 | 42359 |     - |    71M |   0 |2525 | 985 | 899 | 105 | 25 |   1 |   0 | 5.001442e+04 | 5.007473e+04 |   0.12%| unknown
 36.4s|     1 |     0 | 42583 |     - |    71M |   0 |2525 | 985 | 906 | 112 | 26 |   1 |   0 | 5.001653e+04 | 5.007473e+04 |   0.12%| unknown
 36.6s|     1 |     0 | 42625 |     - |    71M |   0 |2525 | 985 | 910 | 116 | 27 |   1 |   0 | 5.001697e+04 | 5.007473e+04 |   0.12%| unknown
 36.7s|     1 |     0 | 42683 |     - |    71M |   0 |2525 | 985 | 897 | 119 | 28 |   1 |   0 | 5.001720e+04 | 5.007473e+04 |   0.12%| unknown
 36.9s|     1 |     0 | 42818 |     - |    71M |   0 |2525 | 985 | 900 | 122 | 29 |   1 |   0 | 5.001771e+04 | 5.007473e+04 |   0.11%| unknown
 37.2s|     1 |     0 | 43033 |     - |    71M |   0 |2525 | 985 | 906 | 128 | 30 |   1 |   0 | 5.002135e+04 | 5.007473e+04 |   0.11%| unknown
 37.7s|     1 |     0 | 43161 |     - |    71M |   0 |2525 | 985 | 911 | 133 | 31 |   1 |   0 | 5.002156e+04 | 5.007473e+04 |   0.11%| unknown
 37.8s|     1 |     0 | 43427 |     - |    71M |   0 |2525 | 985 | 918 | 140 | 32 |   1 |   0 | 5.002405e+04 | 5.007473e+04 |   0.10%| unknown
 37.8s|     1 |     0 | 43427 |     - |    71M |   0 |2525 | 985 | 916 | 140 | 32 |   1 |   0 | 5.002405e+04 | 5.007473e+04 |   0.10%| unknown
 time | node  | left  |LP iter|LP it/n|mem/heur|mdpt |vars |cons |rows |cuts |sepa|confs|strbr|  dualbound   | primalbound  |  gap   | compl. 
 37.8s|     1 |     0 | 43462 |     - |    71M |   0 |2525 | 985 | 921 | 145 | 33 |   1 |   0 | 5.002423e+04 | 5.007473e+04 |   0.10%| unknown
 37.9s|     1 |     0 | 43519 |     - |    71M |   0 |2525 | 985 | 892 | 149 | 34 |   1 |   0 | 5.002467e+04 | 5.007473e+04 |   0.10%| unknown
 38.0s|     1 |     0 | 43519 |     - |    71M |   0 |2525 | 982 | 892 | 149 | 34 |   1 |   0 | 5.002467e+04 | 5.007473e+04 |   0.10%| unknown
 38.1s|     1 |     0 | 43538 |     - |    71M |   0 |2525 | 982 | 894 | 151 | 35 |   1 |   0 | 5.002481e+04 | 5.007473e+04 |   0.10%| unknown
 38.2s|     1 |     0 | 43582 |     - |    71M |   0 |2525 | 982 | 896 | 153 | 36 |   1 |   0 | 5.002525e+04 | 5.007473e+04 |   0.10%| unknown
 38.2s|     1 |     0 | 43639 |     - |    71M |   0 |2525 | 982 | 899 | 156 | 37 |   1 |   0 | 5.002580e+04 | 5.007473e+04 |   0.10%| unknown
 38.3s|     1 |     0 | 43665 |     - |    71M |   0 |2525 | 982 | 900 | 157 | 38 |   1 |   0 | 5.002585e+04 | 5.007473e+04 |   0.10%| unknown
 38.4s|     1 |     0 | 43669 |     - |    71M |   0 |2525 | 982 | 901 | 158 | 39 |   1 |   0 | 5.002585e+04 | 5.007473e+04 |   0.10%| unknown
(run 2, node 1) restarting after 22 global fixings of integer variables

(restart) converted 89 cuts from the global cut pool into linear constraints

presolving:
(round 1, fast)       402 del vars, 2 del conss, 0 add conss, 552 chg bounds, 0 chg sides, 23 chg coeffs, 0 upgd conss, 0 impls, 0 clqs
(round 2, fast)       403 del vars, 3 del conss, 0 add conss, 605 chg bounds, 0 chg sides, 26 chg coeffs, 0 upgd conss, 0 impls, 0 clqs
   (38.7s) running MILP presolver
   (38.7s) MILP presolver (8 rounds): 24 aggregations, 16 fixings, 38 bound changes
(round 3, medium)     443 del vars, 3 del conss, 0 add conss, 643 chg bounds, 0 chg sides, 26 chg coeffs, 0 upgd conss, 0 impls, 0 clqs
(round 4, fast)       443 del vars, 27 del conss, 0 add conss, 643 chg bounds, 0 chg sides, 30 chg coeffs, 0 upgd conss, 0 impls, 0 clqs
(round 5, exhaustive) 443 del vars, 42 del conss, 0 add conss, 643 chg bounds, 0 chg sides, 30 chg coeffs, 0 upgd conss, 0 impls, 0 clqs
(round 6, exhaustive) 443 del vars, 48 del conss, 0 add conss, 643 chg bounds, 6 chg sides, 30 chg coeffs, 0 upgd conss, 0 impls, 0 clqs
(round 7, exhaustive) 443 del vars, 48 del conss, 0 add conss, 643 chg bounds, 6 chg sides, 30 chg coeffs, 2 upgd conss, 0 impls, 0 clqs
(round 8, fast)       443 del vars, 49 del conss, 0 add conss, 643 chg bounds, 6 chg sides, 30 chg coeffs, 2 upgd conss, 1 impls, 0 clqs
presolving (9 rounds: 9 fast, 5 medium, 4 exhaustive):
 443 deleted vars, 49 deleted constraints, 0 added constraints, 643 tightened bounds, 0 added holes, 6 changed sides, 30 changed coefficients
 1 implications, 0 cliques
presolved problem has 2082 variables (111 bin, 0 int, 0 impl, 1971 cont) and 1025 constraints
      1 constraints of type <varbound>
   1008 constraints of type <linear>
     16 constraints of type <logicor>
Presolving Time: 0.53
transformed 3/100 original solutions to the transformed problem space

 time | node  | left  |LP iter|LP it/n|mem/heur|mdpt |vars |cons |rows |cuts |sepa|confs|strbr|  dualbound   | primalbound  |  gap   | compl. 
 40.0s|     1 |     0 | 49339 |     - |    71M |   0 |2082 |1025 |1021 |   0 |  0 |1730 |   0 | 5.002585e+04 | 5.007473e+04 |   0.10%| unknown
 40.1s|     1 |     0 | 49339 |     - |    71M |   0 |2082 |1025 |1021 |   0 |  0 |1730 |   0 | 5.002585e+04 | 5.007473e+04 |   0.10%| unknown
 40.1s|     1 |     0 | 49390 |     - |    71M |   0 |2082 |1025 |1022 |   1 |  1 |1730 |   0 | 5.007473e+04 | 5.007473e+04 |   0.00%| unknown
 40.1s|     1 |     0 | 49390 |     - |    71M |   0 |2082 |1025 |1022 |   1 |  1 |1730 |   0 | 5.007473e+04 | 5.007473e+04 |   0.00%| unknown

SCIP Status        : problem is solved [optimal solution found]
Solving Time (sec) : 40.13
Solving Nodes      : 1 (total of 3 nodes in 3 runs)
Primal Bound       : +5.00747306145603e+04 (228 solutions)
Dual Bound         : +5.00747306145603e+04
Gap                : 0.00 %
Solve Status: optimal
Solve Time: 40.13 seconds
